\ENCODING=ISO-8859-1
\Problem name: ilog.cplex

Minimize
 obj: 9.85320010708586 X0,4,0 + 9.85320010708586 X0,4,1
      + 9.85320010708586 X1,5,0 + 9.85320010708586 X1,5,1
      + 9.85320010708586 X3,1,0 + 9.85320010708586 X3,1,1
      + 9.85320010708586 X4,2,0 + 9.85320010708586 X4,2,1
      + 0.591192006425152 y0,4,1,0 + 0.591192006425152 y1,5,1,0
      + 0.591192006425152 y3,1,1,0 + 0.591192006425152 y4,2,1,0
Subject To
 c1:  X0,1,0 + X0,4,0 - X6,0,0  = 0
 c3:  - X0,1,0 + X1,2,0 + X1,5,0 - X3,1,0  = 0
 c5:  - X1,2,0 + X2,8,0 - X4,2,0  = 0
 c7:  X3,4,0 + X3,1,0 - X7,3,0  = 0
 c9:  - X0,4,0 - X3,4,0 + X4,5,0 + X4,2,0  = 0
 c11: - X1,5,0 - X4,5,0 + X5,9,0  = 0
 c13: X6,0,0 <= 1
 c15: X7,3,0  = 0
 c17: X5,9,0  = 0
 c19: X0,4,0 + X1,5,0 + X3,1,0 + X4,2,0 <= 2
 c21: 295.596003212576 X0,4,0 + 295.596003212576 X1,5,0
      + 295.596003212576 X3,1,0 + 295.596003212576 X4,2,0 <= 5000


 c23: X0,1,1 + X0,4,1 - X6,0,1  = 0
 c25: - X0,1,1 + X1,2,1 + X1,5,1 - X3,1,1  = 0
 c26: - X1,2,1 + X2,8,1 - X4,2,1  = 0
 c27: X3,4,1 + X3,1,1 - X7,3,1  = 0
 c28: - X0,4,1 - X3,4,1 + X4,5,1 + X4,2,1  = 0
 c29: - X1,5,1 - X4,5,1 + X5,9,1  = 0
 c30: X7,3,1 <= 1
 c31: X6,0,1  = 0
 c32: X2,8,1  = 0
 c33: X0,4,1 + X1,5,1 + X3,1,1 + X4,2,1 <= 2
 c34: 295.596003212576 X0,4,1 + 295.596003212576 X1,5,1
      + 295.596003212576 X3,1,1 + 295.596003212576 X4,2,1 <= 5000
      
 c35: y0,1,1,0 + y0,4,1,0  = 0
 c36: - y0,1,1,0 + y1,2,1,0 + y1,5,1,0 - y3,1,1,0  = 0
 c37: - y1,2,1,0 - y4,2,1,0  = -203
 c38: y3,4,1,0 + y3,1,1,0  = 203
 c39: - y0,4,1,0 - y3,4,1,0 + y4,5,1,0 + y4,2,1,0  = 0
 c40: - y1,5,1,0 - y4,5,1,0  = 0
 c41: - 9000 X0,4,0 - 9000 X0,4,1 + y0,4,1,0 <= 0
 c42: - 9000 X1,5,0 - 9000 X1,5,1 + y1,5,1,0 <= 0
 c43: - 9000 X3,1,0 - 9000 X3,1,1 + y3,1,1,0 <= 0
 c44: - 9000 X4,2,0 - 9000 X4,2,1 + y4,2,1,0 <= 0
Bounds
 0 <= X0,1,0 <= 1
 0 <= X0,1,1 <= 1
 0 <= X0,4,0 <= 1
 0 <= X0,4,1 <= 1
 0 <= X1,2,0 <= 1
 0 <= X1,2,1 <= 1
 0 <= X1,5,0 <= 1
 0 <= X1,5,1 <= 1
 0 <= X2,8,0 <= 1
 0 <= X2,8,1 <= 1
 0 <= X3,4,0 <= 1
 0 <= X3,4,1 <= 1
 0 <= X3,1,0 <= 1
 0 <= X3,1,1 <= 1
 0 <= X4,5,0 <= 1
 0 <= X4,5,1 <= 1
 0 <= X4,2,0 <= 1
 0 <= X4,2,1 <= 1
 0 <= X5,9,0 <= 1
 0 <= X5,9,1 <= 1
 0 <= X6,0,0 <= 1
 0 <= X6,0,1 <= 1
 0 <= X7,3,0 <= 1
 0 <= X7,3,1 <= 1
Generals
 X0,1,0  X0,1,1  X0,4,0  X0,4,1  X1,2,0  X1,2,1  X1,5,0  X1,5,1  X2,8,0 
 X2,8,1  X3,4,0  X3,4,1  X3,1,0  X3,1,1  X4,5,0  X4,5,1  X4,2,0  X4,2,1 
 X5,9,0  X5,9,1  X6,0,0  X6,0,1  X7,3,0  X7,3,1 
End
